db/data/29790254230841592746112672621731.z3.out
sat
-------------------
4.228424546
